SDVRP instances/p02/p02_00_tsplib0_splitx10_0.vrp
NAME:.\SDVRP_splitx10_
BEST_KNOWN: 0
COMMENT: 0
DIMENSION: 285
CAPACITY: 1400
EDGE_WEIGHT_FORMAT: FUNCTION
EDGE_WEIGHT_TYPE: EXACT_2D
NODE_COORD_SECTION
1 0.00000 0.00000
2 -18 -18
3 -18 -18
4 -18 -18
5 -18 -18
6 -4 -14
7 -4 -14
8 -4 -14
9 -4 -14
10 -4 -14
11 -4 -14
12 -19 5
13 -19 5
14 -19 5
15 -19 5
16 5 -5
17 5 -5
18 5 -5
19 15 -20
20 15 -20
21 -7 -6
22 -7 -6
23 -7 -6
24 -7 -6
25 -7 -6
26 10 10
27 10 10
28 15 5
29 15 5
30 15 5
31 -14 19
32 -14 19
33 0 26
34 0 26
35 0 26
36 0 26
37 0 26
38 0 26
39 15 25
40 15 25
41 15 25
42 15 25
43 -5 11
44 -5 11
45 -5 11
46 22 -5
47 22 -5
48 22 -5
49 22 -5
50 22 -5
51 22 17
52 22 17
53 22 17
54 22 17
55 22 -16
56 22 -16
57 -19 -4
58 -19 -4
59 -19 -4
60 -19 -4
61 -19 -4
62 -7 4
63 -7 4
64 -7 4
65 -7 4
66 -7 4
67 -7 4
68 -31 16
69 -31 16
70 -31 16
71 -31 16
72 -31 16
73 -31 16
74 22 8
75 22 8
76 26 -26
77 26 -26
78 26 -26
79 4 -27
80 -14 -27
81 -14 -27
82 -14 -27
83 -14 -27
84 -14 -27
85 -29 -12
86 -29 -12
87 -29 -12
88 -29 -12
89 -29 -12
90 -33 3
91 -33 3
92 -33 3
93 -33 3
94 -33 3
95 -33 3
96 -33 3
97 -23 24
98 1 6
99 1 6
100 1 6
101 1 6
102 15 -6
103 15 -6
104 15 -6
105 15 -6
106 -5 -24
107 -5 -24
108 12 -14
109 12 -14
110 12 -14
111 12 -14
112 12 -14
113 12 -14
114 3 -14
115 3 -14
116 3 -14
117 -9 36
118 -9 36
119 -9 36
120 -9 36
121 -9 36
122 -18 13
123 -14 -11
124 -14 -11
125 -14 -11
126 -14 -11
127 -14 -11
128 -14 -11
129 -14 -11
130 10 0
131 10 0
132 10 0
133 10 0
134 10 0
135 15 10
136 15 10
137 15 10
138 15 10
139 14 -30
140 14 -30
141 14 -30
142 14 -30
143 14 -30
144 20 -25
145 7 26
146 7 26
147 7 26
148 7 26
149 7 26
150 -10 20
151 -10 20
152 -10 20
153 -10 10
154 -10 10
155 -10 10
156 -10 10
157 -10 10
158 -28 -23
159 -28 -23
160 -25 -26
161 -25 -26
162 -25 -26
163 -25 -26
164 -24 -21
165 -24 -21
166 -24 -21
167 -24 -21
168 -19 8
169 -19 8
170 -19 8
171 -19 8
172 10 -10
173 10 -10
174 11 2
175 11 2
176 11 2
177 11 2
178 11 2
179 11 2
180 11 2
181 10 -25
182 10 -25
183 10 -25
184 10 -25
185 10 -25
186 8 -19
187 8 -19
188 8 -19
189 8 -19
190 8 -19
191 8 -19
192 -28 -2
193 -28 -2
194 -28 -2
195 -28 -2
196 -25 16
197 -25 16
198 -25 16
199 -11 -1
200 -11 -1
201 -11 -1
202 -11 -1
203 -11 -1
204 14 -2
205 14 -2
206 14 -2
207 14 -2
208 14 -2
209 15 17
210 15 17
211 15 17
212 27 1
213 27 1
214 27 1
215 -30 30
216 -34 -15
217 -34 -15
218 -34 -15
219 -34 -15
220 -34 -15
221 -34 -15
222 25 -13
223 0 20
224 0 20
225 30 24
226 30 24
227 30 24
228 30 24
229 30 24
230 24 -36
231 24 -36
232 24 -36
233 24 -36
234 24 -36
235 24 -36
236 -4 -34
237 -4 -34
238 -10 -20
239 -10 -20
240 -10 -20
241 -10 -20
242 -20 -10
243 -20 -10
244 -20 -10
245 -20 -10
246 -25 -35
247 10 30
248 10 30
249 10 30
250 17 32
251 17 32
252 17 32
253 17 32
254 5 2
255 5 2
256 5 2
257 -2 -7
258 -2 -7
259 -2 -7
260 -2 -7
261 10 -36
262 10 -36
263 26 -32
264 26 -32
265 26 -32
266 26 -32
267 19 -35
268 19 -35
269 19 -35
270 -5 20
271 -13 -16
272 -13 -16
273 -13 -16
274 -13 -16
275 -13 -16
276 0 -20
277 0 -20
278 0 -20
279 0 -20
280 0 -3
281 0 -3
282 0 -3
283 0 -3
284 0 -3
285 0 -3
DEMAND_SECTION
1 0
2 140
3 14
4 14
5 12
6 140
7 70
8 14
9 14
10 14
11 8
12 70
13 14
14 14
15 12
16 280
17 14
18 6
19 140
20 70
21 140
22 14
23 14
24 14
25 8
26 140
27 10
28 140
29 14
30 6
31 280
32 10
33 140
34 70
35 14
36 14
37 14
38 8
39 280
40 70
41 14
42 6
43 140
44 14
45 6
46 70
47 14
48 14
49 14
50 8
51 280
52 14
53 14
54 2
55 70
56 10
57 140
58 14
59 14
60 14
61 8
62 140
63 14
64 14
65 14
66 14
67 4
68 70
69 14
70 14
71 14
72 14
73 4
74 140
75 10
76 140
77 70
78 10
79 280
80 70
81 14
82 14
83 14
84 8
85 14
86 14
87 14
88 14
89 4
90 140
91 70
92 14
93 14
94 14
95 14
96 4
97 140
98 140
99 14
100 14
101 12
102 140
103 14
104 14
105 2
106 280
107 10
108 70
109 14
110 14
111 14
112 14
113 4
114 140
115 70
116 10
117 140
118 70
119 14
120 14
121 12
122 280
123 140
124 70
125 14
126 14
127 14
128 14
129 4
130 140
131 14
132 14
133 14
134 8
135 70
136 14
137 14
138 2
139 70
140 14
141 14
142 14
143 8
144 140
145 140
146 70
147 14
148 14
149 2
150 140
151 14
152 6
153 280
154 14
155 14
156 14
157 8
158 140
159 10
160 70
161 14
162 14
163 12
164 140
165 14
166 14
167 12
168 140
169 14
170 14
171 2
172 140
173 70
174 140
175 70
176 14
177 14
178 14
179 14
180 4
181 140
182 14
183 14
184 14
185 8
186 140
187 14
188 14
189 14
190 14
191 4
192 14
193 14
194 14
195 8
196 140
197 70
198 10
199 70
200 14
201 14
202 14
203 8
204 140
205 14
206 14
207 14
208 8
209 140
210 70
211 10
212 140
213 14
214 6
215 70
216 140
217 70
218 14
219 14
220 14
221 8
222 140
223 140
224 70
225 140
226 70
227 14
228 14
229 2
230 70
231 14
232 14
233 14
234 14
235 4
236 140
237 10
238 140
239 14
240 14
241 12
242 70
243 14
244 14
245 12
246 280
247 70
248 14
249 6
250 280
251 70
252 14
253 6
254 280
255 14
256 6
257 70
258 14
259 14
260 2
261 70
262 10
263 70
264 14
265 14
266 12
267 14
268 14
269 2
270 10
271 14
272 14
273 14
274 14
275 4
276 70
277 14
278 14
279 2
280 140
281 14
282 14
283 14
284 14
285 4
DEPOT_SECTION
1
-1
EOF