SDVRP instances/p02/p02_00_tsplib0_splitx10_0.sol
284 -7 8 9 6 10 5 238 240 239 237 82 83 81 79 80 106 105 236 235 78 278 275 277 276 -15 17 16 171 172 102 101 104 103 205 203 206 204 207 130 132 131 133 129 253 255 254 -22 24 23 21 20 127 124 123 128 126 125 122 241 244 243 242 59 60 57 58 56 12 11 13 14 170 168 169 167 61 63 66 64 62 65 -26 25 209 210 208 228 225 224 227 226 53 50 51 52 137 136 135 134 176 177 174 179 173 175 178 -28 29 27 73 74 212 213 211 45 48 46 47 49 221 55 54 187 186 189 188 190 185 114 113 115 256 258 257 259 -38 41 40 39 250 249 251 252 246 247 248 144 147 145 148 146 222 223 -98 100 99 97 42 44 43 150 151 149 31 30 121 156 155 154 153 152 -109 112 111 110 107 108 19 18 143 77 76 75 263 264 265 262 229 234 230 232 233 231 266 268 267 261 260 142 139 141 140 138 184 180 183 181 182 -191 192 193 194 95 89 92 91 94 90 93 69 72 67 70 68 71 197 195 196 96 214 119 120 118 116 117 33 32 35 34 36 37 269 -202 201 199 200 198 86 87 84 85 88 216 218 215 219 220 217 158 157 245 162 161 160 159 166 165 163 164 4 1 3 2 271 273 274 270 272 -279 283 280 284 282 281 0 





OBJ=
850.036
BEST_KNOWN=
0.000